C  H 
 1.0000000000000000
    10.0000000000000000    0.0000000000000000    0.0000000000000000
     0.0000000000000000   10.0000000000000000    0.0000000000000000
     0.0000000000000000    0.0000000000000000   10.0000000000000000
 C   H  
   2   4
Direct
  0.5000000000000000  0.5000000000000000  0.5667480000000000
  0.5000000000000000  0.5000000000000000  0.4332520000000000
  0.5000000000000000  0.5922832000000000  0.6237695000000001
  0.5000000000000000  0.4077168000000000  0.6237695000000001
  0.5000000000000000  0.5922832000000000  0.3762305000000000
  0.5000000000000000  0.4077168000000000  0.3762305000000000
