H4 C1 O1
1.0
  15.0000000000000000    0.0000000000000000    0.0000000000000000
   0.0000000000000000   15.0000000000000000    0.0000000000000000
   0.0000000000000000    0.0000000000000000   15.0000000000000000
C O H
1 1 4
direct
   0.4768666666666666    0.4899333333333333    0.5000000000000000 C
   0.5722000000000000    0.4899333333333333    0.5000000000000000 O
   0.5929333333333333    0.5504666666666667    0.5000000000000000 H
   0.4526666666666667    0.5584666666666667    0.5000000000000000 H
   0.4526666666666667    0.4556666666666667    0.5593333333333333 H
   0.4526666666666667    0.4556666666666667    0.4406666666666667 H
