H8 C2
1.0
   4.9578493600000000    0.0000000000000000    0.0000000000000003
   0.0000000000000008    4.9578493600000000    0.0000000000000003
   0.0000000000000000    0.0000000000000000    4.9578493600000000
H C
8 2
direct
   0.1268435600000000    0.1268435600000000    0.1268435600000000 H
   0.1268435600000000    0.8731564400000000    0.8731564400000000 H
   0.8731564400000000    0.8731564400000000    0.1268435600000000 H
   0.8731564400000000    0.1268435600000000    0.8731564400000000 H
   0.6268435600000000    0.6268435600000000    0.6268435600000000 H
   0.6268435600000000    0.3731564400000000    0.3731564400000000 H
   0.3731564400000000    0.3731564400000000    0.6268435600000000 H
   0.3731564400000000    0.6268435600000000    0.3731564400000000 H
   0.0000000000000000    0.0000000000000000    0.0000000000000000 C
   0.5000000000000000    0.5000000000000000    0.5000000000000000 C
