C4 O8
1.0
   5.4970732800000004    0.0000000000000000    0.0000000000000003
   0.0000000000000009    5.4970732800000004    0.0000000000000003
   0.0000000000000000    0.0000000000000000    5.4970732800000004
C O
4 8
direct
   0.0000000000000000    0.0000000000000000    0.0000000000000000 C
   0.5000000000000000    0.0000000000000000    0.5000000000000000 C
   0.5000000000000000    0.5000000000000000    0.0000000000000000 C
   0.0000000000000000    0.5000000000000000    0.5000000000000000 C
   0.1225369800000000    0.1225369800000000    0.1225369800000000 O
   0.8774630200000000    0.8774630200000000    0.8774630200000000 O
   0.3774630200000000    0.8774630200000000    0.6225369800000000 O
   0.6225369800000000    0.1225369800000000    0.3774630200000000 O
   0.6225369800000000    0.3774630200000000    0.8774630200000000 O
   0.3774630200000000    0.6225369800000000    0.1225369800000000 O
   0.8774630200000000    0.6225369800000000    0.3774630200000000 O
   0.1225369800000000    0.3774630200000000    0.6225369800000000 O
