O  C  O  H 
 1.0000000000000000
    10.0000000000000000    0.0000000000000000    0.0000000000000000
     0.0000000000000000   10.0000000000000000    0.0000000000000000
     0.0000000000000000    0.0000000000000000   10.0000000000000000
 O   C   O   H  
   1   1   1   2
Direct
  0.3894841500000001  0.4504651500000001  0.5000000000000000
  0.4935786500000001  0.5365032500000001  0.5000000000000000
  0.6105158500000001  0.5044824500000001  0.5000000000000000
  0.4286216500000001  0.3605949500000001  0.5000000000000000
  0.4557939500000001  0.6394050500000001  0.5000000000000000
