N8 O4
1.0
   6.6272940000000000    0.0000000000000000    0.0000000000000004
   0.0000000000000007    4.3726669999999999    0.0000000000000003
   0.0000000000000000    0.0000000000000000    5.4001159999999997
N O
8 4
direct
   0.1274010000000000    0.7500000000000000    0.7899850000000000 N
   0.8725990000000000    0.2500000000000000    0.2100150000000000 N
   0.3725990000000000    0.2500000000000000    0.2899850000000002 N
   0.6274010000000000    0.7500000000000000    0.7100150000000000 N
   0.1371710000000000    0.7500000000000000    0.0011400000000000 N
   0.8628290000000001    0.2500000000000000    0.9988600000000000 N
   0.3628290000000000    0.2500000000000000    0.5011400000000000 N
   0.6371709999999999    0.7500000000000000    0.4988600000000000 N
   0.1142510000000000    0.7500000000000000    0.5693250000000000 O
   0.8857490000000000    0.2500000000000000    0.4306750000000000 O
   0.3857490000000000    0.2500000000000000    0.0693250000000001 O
   0.6142510000000000    0.7500000000000000    0.9306750000000000 O
