H12 N4
1.0
   4.9770894800000001    0.0000000000000000    0.0000000000000003
   0.0000000000000008    4.9770894800000001    0.0000000000000003
   0.0000000000000000    0.0000000000000000    4.9770894800000001
H N
12 4
direct
   0.0256605000000000    0.3744010300000000    0.3582422900000000 H
   0.4743395000000000    0.6255989700000000    0.8582422900000000 H
   0.5256605000000000    0.1255989700000000    0.6417577100000000 H
   0.9743395000000000    0.8744010300000000    0.1417577100000000 H
   0.3582422900000000    0.0256605000000000    0.3744010300000000 H
   0.8582422900000000    0.4743395000000000    0.6255989700000000 H
   0.6417577100000000    0.5256605000000000    0.1255989700000000 H
   0.1417577100000000    0.9743395000000000    0.8744010300000000 H
   0.3744010300000000    0.3582422900000000    0.0256605000000000 H
   0.6255989700000000    0.8582422900000000    0.4743395000000000 H
   0.1255989700000000    0.6417577100000000    0.5256605000000000 H
   0.8744010300000000    0.1417577100000000    0.9743395000000000 H
   0.0395643500000000    0.0395643500000000    0.0395643500000000 N
   0.4604356500000000    0.9604356500000000    0.5395643500000000 N
   0.5395643500000000    0.4604356500000000    0.9604356500000000 N
   0.9604356500000000    0.5395643500000000    0.4604356500000000 N
