O8
1.0
   4.0443402900000001    0.0003294800000000    0.0000789500000000
   0.0003284900000000    4.0440246599999998   -0.0000163500000000
   0.0001978600000000   -0.0000108900000000    8.7832658200000004
O
8
direct
   0.5559160000000000    0.3640303000000000    0.5306713600000000 O
   0.4440842600000000    0.6359786700000000    0.0306626999999990 O
   0.8640184100000000    0.9440851800000000    0.2806432100000000 O
   0.1359709100000000    0.0559195900000000    0.7806364300000000 O
   0.6359965900000000    0.4440816300000000    0.9693297800000000 O
   0.3640207300000000    0.5559098600000000    0.4693197300000000 O
   0.9440256100000001    0.8640412500000000    0.7193700800000000 O
   0.0559674900000000    0.1359545200000000    0.2193677000000000 O
